(set-logic QF_S)
(declare-fun var_0xINPUT_244257 () String)
(assert (and (not (= var_0xINPUT_244257 "YY8CBEMy6Q")) (= (len var_0xINPUT_244257) 0) (not (= var_0xINPUT_244257 "Example:")) (not (= var_0xINPUT_244257 "YY8CBEMy6Q"))))
(check-sat var_0xINPUT_244257)